70
1215
5
93
17
95
96
17
0 4
0 5
0 6
0 7
0 9
0 10
0 12
0 14
0 17
0 18
0 24
0 25
0 27
0 29
0 31
0 32
0 33
0 35
0 37
0 39
0 40
0 41
0 43
0 48
0 49
0 50
0 52
0 54
0 55
0 56
0 58
0 60
0 63
0 64
0 65
0 66
1 3
1 4
1 5
1 6
1 12
1 13
1 14
1 15
1 16
1 20
1 22
1 23
1 25
1 27
1 31
1 32
1 34
1 36
1 39
1 42
1 44
1 48
1 53
1 56
1 57
1 60
1 62
1 64
1 65
1 66
1 69
2 5
2 7
2 8
2 9
2 11
2 12
2 13
2 14
2 15
2 16
2 17
2 20
2 21
2 29
2 30
2 32
2 34
2 37
2 39
2 41
2 45
2 46
2 48
2 51
2 53
2 55
2 56
2 59
2 60
2 65
2 66
2 67
3 4
3 6
3 7
3 9
3 10
3 12
3 13
3 15
3 17
3 18
3 19
3 21
3 25
3 26
3 28
3 29
3 30
3 32
3 33
3 35
3 37
3 39
3 41
3 45
3 46
3 48
3 49
3 50
3 52
3 54
3 56
3 59
3 60
3 61
3 63
3 67
3 69
4 5
4 6
4 11
4 13
4 14
4 15
4 16
4 19
4 20
4 22
4 31
4 39
4 40
4 43
4 45
4 46
4 48
4 50
4 51
4 54
4 55
4 56
4 57
4 58
4 61
4 62
4 63
4 64
4 65
4 69
5 6
5 7
5 10
5 12
5 17
5 19
5 20
5 21
5 24
5 26
5 29
5 30
5 34
5 35
5 36
5 38
5 40
5 42
5 46
5 47
5 49
5 51
5 53
5 59
5 60
5 61
5 62
5 63
5 66
6 11
6 12
6 13
6 14
6 18
6 22
6 23
6 24
6 25
6 26
6 28
6 32
6 34
6 35
6 36
6 37
6 39
6 40
6 41
6 44
6 48
6 49
6 50
6 54
6 55
6 57
6 58
6 64
6 65
7 8
7 10
7 15
7 16
7 17
7 18
7 23
7 25
7 26
7 28
7 30
7 31
7 35
7 36
7 37
7 42
7 43
7 48
7 49
7 52
7 54
7 60
7 61
7 62
7 64
7 65
7 67
7 68
7 69
8 9
8 13
8 14
8 15
8 16
8 17
8 18
8 19
8 22
8 23
8 26
8 29
8 30
8 32
8 34
8 35
8 36
8 39
8 41
8 43
8 45
8 47
8 48
8 49
8 50
8 51
8 55
8 56
8 57
8 60
8 64
8 65
8 69
9 10
9 13
9 14
9 15
9 17
9 21
9 22
9 25
9 27
9 28
9 30
9 32
9 33
9 35
9 36
9 37
9 38
9 39
9 40
9 41
9 42
9 44
9 46
9 48
9 49
9 50
9 51
9 52
9 58
9 60
9 61
9 62
9 64
9 65
9 66
9 69
10 12
10 13
10 14
10 17
10 23
10 26
10 27
10 28
10 29
10 30
10 33
10 34
10 35
10 36
10 37
10 38
10 39
10 41
10 42
10 46
10 57
10 60
10 62
10 63
10 66
10 67
10 69
11 12
11 14
11 15
11 16
11 17
11 18
11 19
11 21
11 22
11 23
11 25
11 27
11 29
11 30
11 31
11 32
11 33
11 35
11 36
11 37
11 41
11 44
11 45
11 47
11 48
11 53
11 55
11 57
11 58
11 59
11 60
11 62
11 63
12 14
12 17
12 19
12 20
12 21
12 23
12 24
12 25
12 28
12 31
12 32
12 33
12 39
12 40
12 43
12 45
12 46
12 49
12 52
12 54
12 55
12 57
12 61
12 63
12 65
12 67
12 68
13 14
13 16
13 25
13 28
13 29
13 32
13 37
13 38
13 39
13 41
13 43
13 45
13 49
13 52
13 57
13 58
13 59
13 60
13 64
13 65
13 67
14 15
14 16
14 19
14 20
14 21
14 22
14 23
14 26
14 27
14 29
14 30
14 34
14 35
14 36
14 39
14 41
14 42
14 45
14 48
14 50
14 51
14 54
14 55
14 56
14 57
14 62
14 63
14 65
14 69
15 16
15 17
15 19
15 20
15 21
15 22
15 23
15 24
15 26
15 27
15 28
15 31
15 32
15 35
15 36
15 38
15 39
15 44
15 46
15 47
15 49
15 50
15 51
15 52
15 53
15 55
15 57
15 59
15 60
15 64
15 65
15 66
15 68
15 69
16 17
16 18
16 21
16 22
16 24
16 27
16 28
16 30
16 32
16 36
16 38
16 39
16 44
16 45
16 49
16 52
16 53
16 54
16 57
16 60
16 62
16 63
16 66
16 67
17 20
17 21
17 24
17 25
17 27
17 29
17 32
17 33
17 37
17 38
17 39
17 46
17 47
17 55
17 57
17 58
17 59
17 60
17 61
17 64
17 67
18 21
18 22
18 24
18 27
18 29
18 31
18 38
18 39
18 40
18 42
18 44
18 48
18 49
18 50
18 51
18 53
18 55
18 57
18 58
18 60
18 62
18 63
18 64
18 66
18 68
19 20
19 21
19 22
19 23
19 27
19 28
19 29
19 30
19 31
19 34
19 35
19 38
19 43
19 44
19 48
19 54
19 55
19 56
19 57
19 58
19 59
19 60
19 61
19 63
19 67
19 69
20 21
20 23
20 27
20 28
20 29
20 31
20 35
20 36
20 40
20 41
20 42
20 44
20 45
20 46
20 51
20 53
20 54
20 57
20 59
20 60
20 61
20 63
20 65
20 66
20 67
20 69
21 23
21 24
21 26
21 27
21 28
21 29
21 32
21 34
21 35
21 37
21 39
21 40
21 44
21 45
21 47
21 49
21 50
21 52
21 55
21 56
21 57
21 59
21 63
21 69
22 29
22 30
22 33
22 38
22 39
22 40
22 42
22 46
22 48
22 50
22 52
22 53
22 57
22 59
22 60
22 61
22 64
22 66
22 67
22 68
22 69
23 24
23 25
23 27
23 29
23 30
23 31
23 33
23 35
23 38
23 39
23 40
23 42
23 46
23 47
23 50
23 54
23 55
23 56
23 57
23 58
23 60
23 61
23 62
23 63
23 64
23 65
23 66
24 25
24 29
24 30
24 32
24 33
24 34
24 35
24 36
24 37
24 38
24 41
24 44
24 45
24 48
24 50
24 51
24 52
24 55
24 57
24 58
24 59
24 60
24 61
24 62
24 64
24 69
25 27
25 28
25 31
25 33
25 34
25 35
25 39
25 42
25 43
25 45
25 50
25 51
25 54
25 55
25 58
25 59
25 62
25 64
25 66
26 32
26 37
26 39
26 40
26 41
26 42
26 45
26 49
26 50
26 51
26 53
26 54
26 58
26 59
26 62
26 63
26 66
26 67
26 69
27 30
27 31
27 32
27 33
27 35
27 39
27 42
27 45
27 46
27 51
27 53
27 55
27 62
27 63
27 65
27 66
27 67
27 69
28 29
28 31
28 33
28 34
28 36
28 38
28 41
28 42
28 47
28 48
28 50
28 51
28 52
28 53
28 55
28 57
28 58
28 59
28 61
28 62
28 63
28 65
28 67
28 68
29 30
29 31
29 34
29 36
29 39
29 43
29 44
29 45
29 46
29 47
29 48
29 49
29 50
29 52
29 59
29 61
29 67
29 69
30 31
30 34
30 35
30 36
30 38
30 39
30 40
30 41
30 42
30 43
30 44
30 52
30 54
30 55
30 58
30 60
30 61
30 62
30 66
30 67
30 68
31 33
31 36
31 37
31 38
31 40
31 42
31 44
31 45
31 48
31 53
31 55
31 56
31 57
31 58
31 60
31 63
31 65
31 67
31 69
32 33
32 35
32 36
32 37
32 41
32 45
32 49
32 51
32 52
32 54
32 60
32 61
33 39
33 40
33 41
33 42
33 43
33 44
33 46
33 47
33 50
33 52
33 53
33 54
33 55
33 56
33 58
33 59
33 60
33 61
33 62
33 64
33 66
33 67
34 37
34 39
34 40
34 41
34 43
34 44
34 46
34 47
34 48
34 49
34 50
34 54
34 57
34 58
34 60
34 62
34 64
34 65
34 66
34 69
35 36
35 39
35 40
35 41
35 44
35 45
35 48
35 49
35 52
35 56
35 57
35 58
35 61
35 62
35 64
36 39
36 41
36 47
36 48
36 50
36 51
36 52
36 55
36 60
36 63
36 64
36 65
36 67
36 68
37 43
37 44
37 48
37 49
37 51
37 52
37 53
37 54
37 55
37 56
37 57
37 58
37 60
37 62
37 63
37 65
37 66
37 68
38 46
38 48
38 50
38 52
38 53
38 58
38 60
38 62
38 64
38 66
39 43
39 44
39 47
39 48
39 50
39 52
39 53
39 54
39 55
39 59
39 60
39 63
39 65
39 66
39 67
40 44
40 45
40 46
40 48
40 49
40 50
40 51
40 52
40 55
40 56
40 57
40 58
40 60
40 62
40 63
40 64
40 66
40 67
40 68
41 43
41 45
41 46
41 48
41 49
41 52
41 57
41 58
41 59
41 60
41 63
41 67
41 69
42 43
42 44
42 48
42 49
42 50
42 52
42 54
42 55
42 56
42 59
42 60
42 61
42 63
42 64
42 65
42 67
42 69
43 49
43 52
43 56
43 61
43 62
43 63
43 64
43 65
43 69
44 45
44 46
44 53
44 54
44 55
44 56
44 57
44 58
44 60
44 61
44 62
44 63
44 66
44 67
44 68
44 69
45 48
45 49
45 53
45 56
45 57
45 59
45 60
45 62
45 63
45 65
45 66
45 68
45 69
46 47
46 48
46 50
46 52
46 53
46 54
46 55
46 56
46 57
46 58
46 60
46 61
46 62
46 64
46 66
46 68
46 69
47 48
47 50
47 51
47 53
47 54
47 58
47 59
47 60
47 63
47 69
48 51
48 54
48 57
48 59
48 61
48 62
48 65
48 66
48 67
48 68
49 50
49 52
49 54
49 60
49 61
49 62
49 64
49 65
49 67
49 68
49 69
50 51
50 53
50 54
50 57
50 58
50 60
50 61
50 62
50 64
50 65
50 67
50 68
50 69
51 56
51 57
51 58
51 59
51 61
51 62
51 63
51 64
51 65
52 54
52 55
52 56
52 57
52 61
52 63
52 64
52 68
53 55
53 57
53 58
53 60
53 61
53 63
53 64
53 67
53 68
54 59
54 62
54 63
54 65
54 66
54 67
54 69
55 57
55 58
55 60
55 61
55 62
55 63
55 64
55 67
55 69
56 58
56 59
56 62
56 65
56 66
56 67
56 68
57 58
57 59
57 60
57 61
57 62
57 65
57 67
57 68
57 69
58 59
58 60
58 62
58 64
58 65
58 68
59 60
59 62
59 64
59 67
59 68
60 63
60 65
60 67
61 64
61 67
61 68
62 63
62 65
62 67
62 69
63 65
63 66
63 67
63 68
64 68
64 69
65 66
65 68
66 67
67 69
68 69
37 8 53 24 11 33 35 68 62 50 3 43 6 22
48 59 23 36 38 31 54 28 16 49 32 30 34 5
9 46 42 25 45 66 15 69 21 56 64 19 4 26
44 12 10 60 41 27 14 0 7 57 67 29 13 2
63 47 1 65 52 51 58 61 20 40 39 17 55 18
